20
99.0
0 19 10.32 10.7
1 18 9.96 9.82
2 17 10.53 10.94
3 16 9.64 10.87
4 15 9.97 10.79
5 14 10.55 11.6
6 13 10.93 10.97
7 12 10.81 10.44
8 11 10.33 11.58
9 10 11.07 18.82
10 9 8.53 20.21
11 8 11.31 9.89
12 7 12.14 10.55
13 6 11.5 11.11
14 5 11.75 6.24
15 4 8.74 0.53
16 3 11.68 52.51
17 2 14.06 9.04
18 1 8.63 99.0
